p cnf 20 40
5 -13 0
17 19 0
-10 -6 0
14 5 0
7 4 0
-3 15 0
-10 13 0
-12 -10 0
13 8 0
18 -6 0
1 3 0
10 14 0
-17 -19 0
-4 -12 0
-9 11 0
20 -2 0
10 -2 0
-7 12 0
-19 11 0
-8 -5 0
4 20 0
-4 -18 0
-8 -19 0
-16 7 0
-11 8 0
-2 3 0
-11 13 0
-17 -14 0
-6 -7 0
19 4 0
-4 -18 0
8 13 0
16 -9 0
-14 1 0
12 -20 0
2 -3 0
4 -17 0
-18 -10 0
13 17 0
-1 19 0
